c 221_4_checker_5cl.cnf
c
c field = 221
c formula set type = 4_checker_5cl
c
p cnf 5 6
442 
444 
446 
448 
-438 
443 
445 
447 
449 
-439 
320 
350 
380 
410 
-290 
321 
351 
381 
411 
-291 
312 
344 
376 
408 
-280 
313 
345 
377 
409 
-281 
